XSym
0035
011989d0bd570d62820f11503b7e3a16
Versions/Current/ClanGUIStyleSilver
                                                                                                                                                                                                                                                                                                                                                                                                                                                                                                                                                                                                                                                                                                                                                                                                                                                                                                                                                                                                                            